(set-logic ALL)
(set-option :produce-models true)
(declare-sort BoundSet 0)
(declare-sort UnboundSet 0)
(set-option :finite-model-find true)
(declare-fun IsShaking (BoundSet) Bool)
(declare-fun IsWater (BoundSet) Bool)
(declare-fun IsShakenOff (BoundSet) Bool)
(assert (not (=> (and (exists ((a BoundSet)) (exists ((b BoundSet)) (and (IsShaking a) (IsWater b)))) (and (forall ((e BoundSet)) (forall ((f BoundSet)) (=> (IsShaking e) (IsShakenOff f)))) (forall ((h BoundSet)) (forall ((g BoundSet)) (=> (IsShakenOff g) (IsShaking h)))))) (exists ((c BoundSet)) (exists ((d BoundSet)) (and (IsShakenOff c) (IsWater d)))))))
(check-sat)
(get-model)